

******************************************************************************
This program contains Ipopt, a library for large-scale nonlinear optimization.
 Ipopt is released as open source code under the Eclipse Public License (EPL).
         For more information visit http://projects.coin-or.org/Ipopt
******************************************************************************

This is Ipopt version 3.12.8, running with linear solver mumps.
NOTE: Other linear solvers might be more efficient (see Ipopt documentation).

Number of nonzeros in equality constraint Jacobian...:        0
Number of nonzeros in inequality constraint Jacobian.:        4
Number of nonzeros in Lagrangian Hessian.............:        3

Total number of variables............................:        2
                     variables with only lower bounds:        0
                variables with lower and upper bounds:        2
                     variables with only upper bounds:        0
Total number of equality constraints.................:        0
Total number of inequality constraints...............:        2
        inequality constraints with only lower bounds:        2
   inequality constraints with lower and upper bounds:        0
        inequality constraints with only upper bounds:        0

iter    objective    inf_pr   inf_du lg(mu)  ||d||  lg(rg) alpha_du alpha_pr  ls
   0  1.4142136e+00 5.78e-01 1.26e+00  -1.0 0.00e+00    -  0.00e+00 0.00e+00   0
   1  2.2078362e+00 1.64e-01 8.32e+00  -1.0 4.44e-01    -  1.06e-01 1.00e+00h  1
   2  1.8559079e+00 0.00e+00 8.15e-01  -1.0 4.11e-01    -  5.87e-01 1.00e+00f  1
   3  1.3210508e+00 1.74e-01 1.50e+00  -1.7 4.70e-01    -  8.27e-01 1.00e+00f  1
   4  1.4866666e+00 1.87e-02 2.44e-01  -1.7 1.36e-01    -  8.86e-01 1.00e+00h  1
   5  1.5229114e+00 0.00e+00 3.35e-02  -1.7 3.91e-02    -  1.00e+00 1.00e+00h  1
   6  1.5113803e+00 0.00e+00 1.15e-04  -2.5 1.15e-02    -  1.00e+00 1.00e+00h  1
   7  1.5087994e+00 0.00e+00 1.18e-05  -3.8 2.35e-03    -  1.00e+00 1.00e+00h  1
   8  1.5086542e+00 0.00e+00 4.09e-08  -5.7 1.31e-04    -  1.00e+00 1.00e+00h  1
   9  1.5086524e+00 0.00e+00 6.57e-12  -8.6 1.64e-06    -  1.00e+00 1.00e+00h  1

Number of Iterations....: 9

                                   (scaled)                 (unscaled)
Objective...............:   1.5086524049197578e+00    1.5086524049197578e+00
Dual infeasibility......:   6.5745025496482667e-12    6.5745025496482667e-12
Constraint violation....:   0.0000000000000000e+00    0.0000000000000000e+00
Complementarity.........:   2.5084209402641837e-09    2.5084209402641837e-09
Overall NLP error.......:   2.5084209402641837e-09    2.5084209402641837e-09


Number of objective function evaluations             = 10
Number of objective gradient evaluations             = 10
Number of equality constraint evaluations            = 0
Number of inequality constraint evaluations          = 10
Number of equality constraint Jacobian evaluations   = 0
Number of inequality constraint Jacobian evaluations = 10
Number of Lagrangian Hessian evaluations             = 9
Total CPU secs in IPOPT (w/o function evaluations)   =      0.003
Total CPU secs in NLP function evaluations           =      0.000

EXIT: Optimal Solution Found.
 
Ipopt 3.12.8: Optimal Solution Found
